100
150
99
97
96
96
96
95
95
95
95
94
94
93
92
92
92
91
91
91
90
89
89
89
88
88
88
87
86
86
85
85
84
83
82
81
81
77
77
76
76
75
73
73
73
72
72
72
72
70
69
67
66
65
65
64
62
61
60
58
57
56
55
53
52
52
52
48
48
46
45
43
42
39
39
38
38
38
38
37
36
35
34
34
32
31
30
30
28
27
27
27
25
24
24
24
23
23
22
22
22
21
